DIMENSION: 28
EDGE_WEIGHT_TYPE: EXPLICIT
EDGE_WEIGHT_FORMAT: FULL_MATRIX
EDGE_WEIGHT_SECTION:
32767 85 79 36 32767 92 32767 32767 99 32767 64 32767 96 32767 44 32767 50 11 24 32767 32767 33 32767 32767 32767 32767 31 21 
85 32767 32767 72 32767 32767 32767 54 81 26 61 25 32767 1 32767 32767 32767 32767 32767 32767 32767 55 51 32767 32767 32767 54 32 
79 32767 32767 32767 32767 32767 10 32767 32767 17 32767 32767 20 33 32767 19 32767 32767 32767 32767 65 32767 32767 32767 32767 99 32767 32767 
36 72 32767 32767 32767 44 32767 86 32767 32767 32767 32767 32767 32767 32767 32767 32767 20 32767 34 32767 50 42 32767 32767 62 68 62 
32767 32767 32767 32767 32767 13 32767 32767 80 32767 32767 28 32767 94 18 32767 51 67 32767 8 86 32767 32767 32767 32767 32767 8 63 
92 32767 32767 44 13 32767 85 8 32767 32767 83 32767 32767 32767 32767 72 32767 32767 32767 32767 32767 32767 32767 76 74 32767 100 32767 
32767 32767 10 32767 32767 85 32767 14 16 32767 32767 48 44 32767 32767 32767 32767 33 59 32767 32767 32767 34 32767 32767 32767 18 18 
32767 54 32767 86 32767 8 14 32767 32767 32767 32767 32767 32767 32767 31 32767 32767 22 88 32767 72 32767 32767 32767 32767 12 32767 32767 
99 81 32767 32767 80 32767 16 32767 32767 32767 32767 26 32767 32767 32767 48 88 47 24 44 32767 31 32767 3 32767 48 66 32767 
32767 26 17 32767 32767 32767 32767 32767 32767 32767 32767 32767 27 32767 32767 32767 71 32767 32767 32767 32767 32767 66 46 67 32767 32767 32767 
64 61 32767 32767 32767 83 32767 32767 32767 32767 32767 32767 32767 32767 32767 74 32767 32767 32767 32767 85 69 32767 32767 83 25 32767 9 
32767 25 32767 32767 28 32767 48 32767 26 32767 32767 32767 32767 32767 32767 32767 32767 1 64 18 43 33 32767 46 32767 100 32767 32767 
96 32767 20 32767 32767 32767 44 32767 32767 27 32767 32767 32767 84 36 32767 53 32767 32767 75 32767 32767 32767 21 32767 32767 45 81 
32767 1 33 32767 94 32767 32767 32767 32767 32767 32767 32767 84 32767 32767 32767 32767 32767 19 32767 32767 90 30 87 30 32767 32767 32767 
44 32767 32767 32767 18 32767 32767 31 32767 32767 32767 32767 36 32767 32767 32767 32767 32767 43 32767 25 32767 49 58 32767 32767 32767 62 
32767 32767 19 32767 32767 72 32767 32767 48 32767 74 32767 32767 32767 32767 32767 32767 45 32767 32767 32767 32767 32767 32767 32767 9 32767 32767 
50 32767 32767 32767 51 32767 32767 32767 88 71 32767 32767 53 32767 32767 32767 32767 49 13 32767 32767 32767 32767 32767 32767 32767 32767 32767 
11 32767 32767 20 67 32767 33 22 47 32767 32767 1 32767 32767 32767 45 49 32767 28 82 32767 26 32767 32767 32767 63 32767 32767 
24 32767 32767 32767 32767 32767 59 88 24 32767 32767 64 32767 19 43 32767 13 28 32767 32767 56 32767 32767 39 94 61 32767 32767 
32767 32767 32767 34 8 32767 32767 32767 44 32767 32767 18 75 32767 32767 32767 32767 82 32767 32767 32767 32767 32767 32767 32767 32767 43 32767 
32767 32767 65 32767 86 32767 32767 72 32767 32767 85 43 32767 32767 25 32767 32767 32767 56 32767 32767 69 21 32767 83 64 32767 32767 
33 55 32767 50 32767 32767 32767 32767 31 32767 69 33 32767 90 32767 32767 32767 26 32767 32767 69 32767 50 23 24 85 28 34 
32767 51 32767 42 32767 32767 34 32767 32767 66 32767 32767 32767 30 49 32767 32767 32767 32767 32767 21 50 32767 32767 32767 32767 83 32767 
32767 32767 32767 32767 32767 76 32767 32767 3 46 32767 46 21 87 58 32767 32767 32767 39 32767 32767 23 32767 32767 32767 32767 93 32767 
32767 32767 32767 32767 32767 74 32767 32767 32767 67 83 32767 32767 30 32767 32767 32767 32767 94 32767 83 24 32767 32767 32767 11 32767 32767 
32767 32767 99 62 32767 32767 32767 12 48 32767 25 100 32767 32767 32767 9 32767 63 61 32767 64 85 32767 32767 11 32767 32767 59 
31 54 32767 68 8 100 18 32767 66 32767 32767 32767 45 32767 32767 32767 32767 32767 32767 43 32767 28 83 93 32767 32767 32767 32767 
21 32 32767 62 63 32767 18 32767 32767 32767 9 32767 81 32767 62 32767 32767 32767 32767 32767 32767 34 32767 32767 32767 59 32767 32767 
EOF